L=18;
no=6;
njo=[7,8,7,6,6,7];
djo=[6,7,6,9,8,7];
trab=[3,12,2,6,4,2,3,6,12,6,12,2,2,4,3,3,6,2,3,18,2,3,6,2,12,12,3,2,3,4,18,2,3,4,6,3,6,6,6,3,6,6,2];
nprec=9;
prec=[| 2, 11,
      | 5, 15,
      | 9, 16,
      | 11, 20,
      | 16, 24,
      | 20, 26,
      | 23, 33,
      | 25, 34,
      | 32, 35 |];


%%%%%%%%%%%%%%%%%%%%%%%%%%%%%%%%%%%%%%%%%%%%%%%%%%%%%%%%%%%%%%%%%%%%%%
%  6
%
%  7   1   7   6  29
%  3  12   2   6   4   2 
%  1   1   1   0   0
%  1   2   2   0   1
%      2   4  11
%  1   3   3   0   0
%  1   4   4   0   0
%  1   5   5   0   1
%      2   8  15
%  1   6   6   0   0
%  1   7   7   0   0
%
%  8   8  15   7  43
%  3   6  12   6  12   2   2 
%  2   1   8   0   0
%  2   2   9   0   1
%      3   1  16
%  2   3  10   0   0
%  2   4  11   1   1
%      1   2   2
%      3   5  20
%  2   5  12   0   0
%  2   6  13   0   0
%  2   7  14   0   0
%  2   8  15   1   0
%      1   5   5
%
%  7  16  22   6  21
%  4   3   3   6   2   3 
%  3   1  16   1   1
%      2   2   9
%      4   2  24
%  3   2  17   0   0
%  3   3  18   0   0
%  3   4  19   0   0
%  3   5  20   1   1
%      2   4  11
%      4   4  26
%  3   6  21   0   0
%  3   7  22   0   0
%
%  6  23  28   9  60
% 18   2   3   6   2  12  12   3   2 
%  4   1  23   0   1
%      5   5  33
%  4   2  24   1   0
%      3   1  16
%  4   3  25   0   1
%      5   6  34
%  4   4  26   1   0
%      3   5  20
%  4   5  27   0   0
%  4   6  28   0   0
%
%  6  29  34   8  43
%  3   4  18   2   3   4   6   3 
%  5   1  29   0   0
%  5   2  30   0   0
%  5   3  31   0   0
%  5   4  32   0   1
%      6   1  35
%  5   5  33   1   0
%      4   1  23
%  5   6  34   1   0
%      4   3  25
%
%  7  35  41   7  35
%  6   6   6   3   6   6   2 
%  6   1  35   1   0
%      5   4  32
%  6   2  36   0   0
%  6   3  37   0   0
%  6   4  38   0   0
%  6   5  39   0   0
%  6   6  40   0   0
%  6   7  41   0   0
%
% 81
